\ Model Q1a
\ LP format - for model browsing. Use MPS format to capture full model detail.
Maximize
  0.14 X[A] + 0.11 X[B]
Subject To
 R0: X[A] + X[B] = 80000
 R1: X[A] >= 30000
 R2: X[B] >= 20000
Bounds
End
